\ENCODING=ISO-8859-1
\Problem name: neos-3610040-iskar.mps

Maximize
 R0336: 0 C0001            + 0 C0002            + 0 C0003            + 0 C0004            + 0 C0005            + 0 C0006            + 0 C0007            + 0 C0008            + 0 C0009            + 0 C0010            + 0 C0011            + 0 C0012            + 0 C0013            + 0 C0014            + 0 C0015            + 0 C0016            + 0 C0017            + 0 C0018            + 0 C0019            + 0 C0020            + 0 C0021            + 0 C0022            + 0 C0023            + 0 C0024            + 0 C0025            + 0 C0026            + 0 C0027            + 0 C0028            + 0 C0029            + 0 C0030            + 0 C0031            + 0 C0032            + 0 C0033            + 0 C0034            + 0 C0035            + 0 C0036            + 0 C0037            + 0 C0038            + 0 C0039            + 0 C0040            + 0 C0041            + 0 C0042            + 0 C0043            + 0 C0044            + 0 C0045            + 0 C0046            + 0 C0047            + 0 C0048            + 0 C0049            + 0 C0050            + 0 C0051            + 0 C0052            + 0 C0053            + 0 C0054            + 0 C0055            + 0 C0056            + 0 C0057            + 0 C0058            + 0 C0059            + 0 C0060            + 0 C0061            + 0 C0062            + 0 C0063            + 0 C0064            + 0 C0065            + 0 C0066            + 0 C0067            + 0 C0068            + 0 C0069            + 0 C0070            + 0 C0071            + 0 C0072            + 0 C0073            + 0 C0074            + 0 C0075            + 0 C0076            + 0 C0077            + 0 C0078            + 0 C0079            + 0 C0080            + 0 C0081            + 0 C0082            + 0 C0083            + 0 C0084            + 0 C0085            + 0 C0086            + 0 C0087            + 0 C0088            + 0 C0089            + 0 C0090            + 0 C0091            + 0 C0092            + 0 C0093            + 0 C0094            + 0 C0095            + 0 C0096            + 0 C0097            + 0 C0098            + 0 C0099            + 0 C0100            + 0 C0101            + 0 C0102            + 0 C0103            + 0 C0104            + 0 C0105            + 0 C0106            + 0 C0107            + 0 C0108            + 0 C0109            + 0 C0110            + 0 C0111            + 0 C0112            + 0 C0113            + 0 C0114            + 0 C0115            + 0 C0116            + 0 C0117            + 0 C0118            + 0 C0119            + 0 C0120            + 0 C0121            + 0 C0122            + 0 C0123            + 0 C0124            + 0 C0125            + 0 C0126            + 0 C0127            + 0 C0128            + 0 C0129            + 0 C0130            + 0 C0131            + 0 C0132            + 0 C0133            + 0 C0134            + 0 C0135            + 0 C0136            + 0 C0137            + 0 C0138            + 0 C0139            + 0 C0140            + 0 C0141            + 0 C0142            + 0 C0143            + 0 C0144            + 0 C0145            + 0 C0146            + 0 C0147            + 0 C0148            + 0 C0149            + 0 C0150            + 0 C0151            + 0 C0152            + 0 C0153            + 0 C0154            + 0 C0155            + 0 C0156            + 0 C0157            + 0 C0158            + 0 C0159            + 0 C0160            + 0 C0161            + 0 C0162            + 0 C0163            + 0 C0164            + 0 C0165            + 0 C0166            + 0 C0167            + 0 C0168            + 0 C0169            + 0 C0170            + 0 C0171            + 0 C0172            + 0 C0173            + 0 C0174            + 0 C0175            + 0 C0176            + 0 C0177            + 0 C0178            + 0 C0179            + 0 C0180            + 0 C0181            + 0 C0182            + 0 C0183            + 0 C0184            + 0 C0185            + 0 C0186            + 0 C0187            + 0 C0188            + 0 C0189            + 0 C0190            + 0 C0191            + 0 C0192            + 0 C0193            + 0 C0194            + 0 C0195            + 0 C0196            + 0 C0197            + 0 C0198            + 0 C0199            + 0 C0200            + 0 C0201            + 0 C0202            + 0 C0203            + 0 C0204            + 0 C0205            + 0 C0206            + 0 C0207            + 0 C0208            + 0 C0209            + 0 C0210            + 0 C0211            + 0 C0212            + 0 C0213            + 0 C0214            + 0 C0215            + 0 C0216            + 0 C0217            + 0 C0218            + 0 C0219            + 0 C0220            + 0 C0221            + 0 C0222            + 0 C0223            + 0 C0224            + 0 C0225            + 0 C0226            + 0 C0227            + 0 C0228            + 0 C0229            + 0 C0230            + 0 C0231            + 0 C0232            + 0 C0233            + 0 C0234            + 0 C0235            + 0 C0236            + 0 C0237            + 0 C0238            + 0 C0239            + 0 C0240            + 0 C0241            + 0 C0242            + 0 C0243            + 0 C0244            + 0 C0245            + 0 C0246            + 0 C0247            + 0 C0248            + 0 C0249            + 0 C0250            + 0 C0251            + 0 C0252            + 0 C0253            + 0 C0254            + 0 C0255            + 0 C0256            + 0 C0257            + 0 C0258            + 0 C0259            + 0 C0260            + 0 C0261            + 0 C0262            + 0 C0263            + 0 C0264            + 0 C0265            + 0 C0266            + 0 C0267            + 0 C0268            + 0 C0269            + 0 C0270            + 0 C0271            + 0 C0272            + 0 C0273            + 0 C0274            + 0 C0275            + 0 C0276            + 0 C0277            + 0 C0278            + 0 C0279            + 0 C0280            + 0 C0281            + 0 C0282            + 0 C0283            + 0 C0284            + 0 C0285            + 0 C0286            + 0 C0287            + 0 C0288            + 0 C0289            + 0 C0290            + 0 C0291            + 0 C0292            + 0 C0293            + 0 C0294            + 0 C0295            + 0 C0296            + 0 C0297            + 0 C0298            + 0 C0299            + 0 C0300            + 0 C0301            + 0 C0302            + 0 C0303            + 0 C0304            + 0 C0305            + 0 C0306            + 0 C0307            + 0 C0308            + 0 C0309            + 0 C0310            + 0 C0311            + 0 C0312            + 0 C0313            + 0 C0314            + 0 C0315            + 0 C0316            + 0 C0317            + 0 C0318            + 0 C0319            + 0 C0320            + 0 C0321            + 0 C0322            + 0 C0323            + 0 C0324            + 0 C0325            + 0 C0326            + 0 C0327            + 0 C0328            + 0 C0329            + 0 C0330            + 0 C0331            + 0 C0332            + 0 C0333            + 0 C0334            + 0 C0335            + 0 C0336            + 0 C0337            + 0 C0338            + 0 C0339            + 0 C0340            + 0 C0341            + 0 C0342            + 0 C0343            + 0 C0344            + 1 C0345            + 0 C0346            + 0 C0347            + 0 C0348            + 0 C0349            + 0 C0350            + 0 C0351            + 0 C0352            + 0 C0353            + 0 C0354            + 0 C0355            + 0 C0356            + 0 C0357            + 0 C0358            + 0 C0359            + 0 C0360            + 0 C0361            + 0 C0362            + 0 C0363            + 0 C0364            + 0 C0365            + 0 C0366            + 0 C0367            + 0 C0368            + 0 C0369            + 0 C0370            + 0 C0371            + 0 C0372            + 0 C0373            + 0 C0374            + 0 C0375            + 0 C0376            + 0 C0377            + 0 C0378            + 0 C0379            + 0 C0380            + 0 C0381            + 0 C0382            + 0 C0383            + 0 C0384            + 0 C0385            + 0 C0386            + 0 C0387            + 0 C0388            + 0 C0389            + 0 C0390            + 0 C0391            + 0 C0392            + 0 C0393            + 0 C0394            + 0 C0395            + 0 C0396            + 0 C0397            + 0 C0398            + 0 C0399            + 0 C0400            + 0 C0401            + 0 C0402            + 0 C0403            + 0 C0404            + 0 C0405            + 0 C0406            + 0 C0407            + 0 C0408            + 0 C0409            + 0 C0410            + 0 C0411            + 0 C0412            + 0 C0413            + 0 C0414            + 0 C0415            + 0 C0416            + 0 C0417            + 0 C0418            + 0 C0419            + 0 C0420            + 0 C0421            + 0 C0422            + 0 C0423            + 0 C0424            + 0 C0425            + 0 C0426            + 0 C0427            + 0 C0428            + 0 C0429            + 0 C0430
Subject To
 R0001: C0345 - C0346 - C0347 - C0348 - C0349 - C0350 - C0351 - C0352 - C0353
        - C0354 - C0355 - C0356 - C0357 - C0358 - C0359 - C0360 - C0361 - C0362
        - C0363 - C0364 - C0365 - C0366 - C0367 - C0368 - C0369 - C0370 - C0371
        - C0372 - C0373 - C0374 - C0375 - C0376 - C0377 - C0378 - C0379 - C0380
        - C0381 - C0382 - C0383 - C0384 - C0385 - C0386 - C0387 - C0388 - C0389
        - C0390 - C0391 - C0392 - C0393 - C0394 - C0395 - C0396 - C0397 - C0398
        - C0399 - C0400 - C0401 - C0402 - C0403 - C0404 - C0405 - C0406 - C0407
        - C0408 - C0409 - C0410 - C0411 - C0412 - C0413 - C0414 - C0415 - C0416
        - C0417 - C0418 - C0419 - C0420 - C0421 - C0422 - C0423 - C0424 - C0425
        - C0426 - C0427 - C0428 - C0429 - C0430  = 15
 R0002: - C0001 + C0002 - 4 C0409 <= -1.68
 R0003: - C0002 + C0003 - 4 C0362 <= -1.14
 R0004: - C0003 + C0004 - 4 C0405 <= -2.8
 R0005: - C0004 + C0005 - 4 C0427 <= -2.47
 R0006: - C0005 + C0006 <= 1.29
 R0007: - C0006 + C0007 - 4 C0391 <= -2.46
 R0008: - C0007 + C0008 - 4 C0418 <= -2.35
 R0009: - C0008 + C0009 - 4 C0359 <= -1.41
 R0010: - C0009 + C0010 <= 1.35
 R0011: - C0010 + C0011 - 4 C0400 <= -2.08
 R0012: - C0011 + C0012 <= 2.59
 R0013: - C0012 + C0013 - 4 C0399 <= -1.68
 R0014: - C0013 + C0014 - 4 C0392 <= -2.34
 R0015: - C0014 + C0015 - 4 C0375 <= -1.48
 R0016: - C0016 + C0017 - 4 C0430 <= -1.89
 R0017: - C0017 + C0018 - 4 C0359 <= -2.36
 R0018: - C0018 + C0019 <= 2.69
 R0019: - C0019 + C0020 <= 1.3
 R0020: - C0020 + C0021 - 4 C0381 <= -1.34
 R0021: - C0021 + C0022 - 4 C0376 <= -2.61
 R0022: - C0022 + C0023 - 4 C0386 <= -2.55
 R0023: - C0023 + C0024 <= 1.89
 R0024: - C0024 + C0025 - 4 C0395 <= -2.28
 R0025: - C0025 + C0026 - 4 C0390 <= -1.79
 R0026: - C0026 + C0027 - 4 C0410 <= -1.47
 R0027: - C0027 + C0028 - 4 C0378 <= -2.14
 R0028: - C0028 + C0029 - 4 C0419 <= -2.85
 R0029: - C0029 + C0030 - 4 C0358 <= -1.35
 R0030: - C0030 + C0031 - 4 C0389 <= -2.86
 R0031: - C0031 + C0032 - 4 C0409 <= -2.55
 R0032: - C0033 + C0034 - 4 C0404 <= -1.61
 R0033: - C0034 + C0035 - 4 C0410 <= -2.76
 R0034: - C0035 + C0036 <= 2.77
 R0035: - C0036 + C0037 - 4 C0430 <= -1
 R0036: - C0037 + C0038 - 4 C0379 <= -1.96
 R0037: - C0038 + C0039 <= 2.56
 R0038: - C0039 + C0040 - 4 C0401 <= -1.74
 R0039: - C0040 + C0041 - 4 C0357 <= -1.48
 R0040: - C0041 + C0042 <= 2.68
 R0041: - C0042 + C0043 - 4 C0372 <= -2.31
 R0042: - C0043 + C0044 - 4 C0395 <= -1.27
 R0043: - C0044 + C0045 - 4 C0414 <= -2.79
 R0044: - C0045 + C0046 - 4 C0381 <= -1.86
 R0045: - C0046 + C0047 - 4 C0366 <= -1.78
 R0046: - C0047 + C0048 - 4 C0385 <= -2.9
 R0047: - C0048 + C0049 <= 1.25
 R0048: - C0050 + C0051 <= 1.08
 R0049: - C0051 + C0052 - 4 C0421 <= -1.59
 R0050: - C0052 + C0053 - 4 C0378 <= -1.43
 R0051: - C0053 + C0054 - 4 C0417 <= -1.77
 R0052: - C0054 + C0055 - 4 C0412 <= -1.78
 R0053: - C0055 + C0056 - 4 C0409 <= -1.34
 R0054: - C0056 + C0057 <= 2.5
 R0055: - C0057 + C0058 - 4 C0406 <= -2.73
 R0056: - C0058 + C0059 - 4 C0349 <= -2.42
 R0057: - C0059 + C0060 - 4 C0400 <= -1.7
 R0058: - C0060 + C0061 - 4 C0367 <= -2.85
 R0059: - C0061 + C0062 - 4 C0357 <= -1.18
 R0060: - C0062 + C0063 - 4 C0411 <= -2.01
 R0061: - C0063 + C0064 - 4 C0420 <= -2.76
 R0062: - C0064 + C0065 - 4 C0410 <= -1.3
 R0063: - C0065 + C0066 - 4 C0374 <= -2.83
 R0064: - C0066 + C0067 <= 1.14
 R0065: - C0067 + C0068 - 4 C0389 <= -2.12
 R0066: - C0068 + C0069 - 4 C0396 <= -2.14
 R0067: - C0070 + C0071 <= 1.48
 R0068: - C0071 + C0072 - 4 C0378 <= -2.55
 R0069: - C0072 + C0073 - 4 C0354 <= -1.17
 R0070: - C0073 + C0074 - 4 C0355 <= -2.09
 R0071: - C0074 + C0075 - 4 C0392 <= -2.22
 R0072: - C0075 + C0076 - 4 C0419 <= -1.27
 R0073: - C0076 + C0077 - 4 C0398 <= -2.37
 R0074: - C0077 + C0078 - 4 C0411 <= -1.57
 R0075: - C0078 + C0079 - 4 C0346 <= -2.47
 R0076: - C0079 + C0080 - 4 C0422 <= -2.82
 R0077: - C0080 + C0081 - 4 C0374 <= -1.43
 R0078: - C0081 + C0082 - 4 C0352 <= -2.62
 R0079: - C0082 + C0083 - 4 C0380 <= -2.53
 R0080: - C0083 + C0084 - 4 C0364 <= -1.65
 R0081: - C0084 + C0085 - 4 C0388 <= -1.89
 R0082: - C0085 + C0086 <= 2.83
 R0083: - C0087 + C0088 <= 2.04
 R0084: - C0088 + C0089 - 4 C0419 <= -1.74
 R0085: - C0089 + C0090 - 4 C0381 <= -1.21
 R0086: - C0090 + C0091 - 4 C0394 <= -2.78
 R0087: - C0091 + C0092 - 4 C0426 <= -1.94
 R0088: - C0092 + C0093 - 4 C0392 <= -2.94
 R0089: - C0093 + C0094 - 4 C0389 <= -1.05
 R0090: - C0094 + C0095 - 4 C0422 <= -1.47
 R0091: - C0095 + C0096 - 4 C0369 <= -2.3
 R0092: - C0096 + C0097 - 4 C0382 <= -1.65
 R0093: - C0097 + C0098 - 4 C0363 <= -2.33
 R0094: - C0098 + C0099 - 4 C0354 <= -1.48
 R0095: - C0099 + C0100 - 4 C0377 <= -1.14
 R0096: - C0101 + C0102 <= 2.36
 R0097: - C0102 + C0103 - 4 C0359 <= -2.4
 R0098: - C0103 + C0104 - 4 C0363 <= -2.09
 R0099: - C0104 + C0105 - 4 C0416 <= -2.36
 R0100: - C0105 + C0106 - 4 C0419 <= -1.57
 R0101: - C0106 + C0107 - 4 C0347 <= -1.58
 R0102: - C0107 + C0108 - 4 C0400 <= -2.41
 R0103: - C0108 + C0109 - 4 C0390 <= -1.16
 R0104: - C0109 + C0110 - 4 C0403 <= -1.82
 R0105: - C0110 + C0111 - 4 C0406 <= -2.44
 R0106: - C0111 + C0112 - 4 C0423 <= -2.66
 R0107: - C0112 + C0113 - 4 C0399 <= -1.4
 R0108: - C0113 + C0114 - 4 C0389 <= -2.66
 R0109: - C0114 + C0115 - 4 C0418 <= -2.82
 R0110: - C0115 + C0116 - 4 C0355 <= -1.79
 R0111: - C0116 + C0117 - 4 C0351 <= -1.97
 R0112: - C0118 + C0119 <= 1.87
 R0113: - C0119 + C0120 - 4 C0379 <= -2.54
 R0114: - C0120 + C0121 <= 1.26
 R0115: - C0121 + C0122 - 4 C0420 <= -1.74
 R0116: - C0122 + C0123 - 4 C0375 <= -1.64
 R0117: - C0123 + C0124 - 4 C0346 <= -2.17
 R0118: - C0124 + C0125 <= 2.94
 R0119: - C0125 + C0126 - 4 C0392 <= -1.97
 R0120: - C0126 + C0127 - 4 C0394 <= -1.44
 R0121: - C0127 + C0128 - 4 C0388 <= -1.83
 R0122: - C0128 + C0129 - 4 C0348 <= -2.19
 R0123: - C0129 + C0130 - 4 C0390 <= -1.06
 R0124: - C0130 + C0131 - 4 C0425 <= -1.96
 R0125: - C0131 + C0132 - 4 C0371 <= -1.25
 R0126: - C0133 + C0134 - 4 C0406 <= -1.74
 R0127: - C0134 + C0135 - 4 C0359 <= -2.82
 R0128: - C0135 + C0136 - 4 C0392 <= -1.37
 R0129: - C0136 + C0137 - 4 C0425 <= -2.67
 R0130: - C0137 + C0138 - 4 C0426 <= -1.51
 R0131: - C0138 + C0139 - 4 C0379 <= -2.13
 R0132: - C0139 + C0140 <= 1.9
 R0133: - C0140 + C0141 <= 2.75
 R0134: - C0141 + C0142 - 4 C0430 <= -1.1
 R0135: - C0142 + C0143 - 4 C0364 <= -2.8
 R0136: - C0143 + C0144 <= 2.24
 R0137: - C0144 + C0145 - 4 C0381 <= -2.48
 R0138: - C0145 + C0146 - 4 C0393 <= -1.08
 R0139: - C0147 + C0148 <= 1.83
 R0140: - C0148 + C0149 - 4 C0358 <= -1.35
 R0141: - C0149 + C0150 - 4 C0389 <= -1.49
 R0142: - C0150 + C0151 - 4 C0374 <= -1.3
 R0143: - C0151 + C0152 - 4 C0410 <= -2.81
 R0144: - C0152 + C0153 - 4 C0382 <= -2.19
 R0145: - C0153 + C0154 - 4 C0371 <= -1.66
 R0146: - C0154 + C0155 <= 1.45
 R0147: - C0155 + C0156 - 4 C0365 <= -1.94
 R0148: - C0156 + C0157 <= 2.98
 R0149: - C0157 + C0158 - 4 C0407 <= -1.66
 R0150: - C0158 + C0159 - 4 C0385 <= -2.62
 R0151: - C0159 + C0160 - 4 C0418 <= -2.64
 R0152: - C0160 + C0161 - 4 C0403 <= -1.09
 R0153: - C0161 + C0162 - 4 C0347 <= -1.33
 R0154: - C0162 + C0163 - 4 C0352 <= -1.12
 R0155: - C0163 + C0164 - 4 C0356 <= -2.82
 R0156: - C0164 + C0165 - 4 C0350 <= -1.62
 R0157: - C0165 + C0166 - 4 C0368 <= -2.06
 R0158: - C0166 + C0167 - 4 C0375 <= -1.73
 R0159: - C0015 + C0183 <= 0
 R0160: - C0032 + C0201 <= 0
 R0161: - C0049 + C0219 <= 0
 R0162: - C0069 + C0240 <= 0
 R0163: - C0086 + C0258 <= 0
 R0164: - C0100 + C0273 <= 0
 R0165: - C0117 + C0291 <= 0
 R0166: - C0132 + C0307 <= 0
 R0167: - C0146 + C0322 <= 0
 R0168: - C0167 + C0344 <= 0
 R0169: C0168 - C0169 - 4 C0409 <= -2.02
 R0170: C0169 - C0170 - 4 C0362 <= -1.68
 R0171: C0170 - C0171 - 4 C0405 <= -1.14
 R0172: C0171 - C0172 - 4 C0427 <= -2.8
 R0173: C0172 - C0173 <= 1.53
 R0174: C0173 - C0174 - 4 C0391 <= -2.71
 R0175: C0174 - C0175 - 4 C0418 <= -2.46
 R0176: C0175 - C0176 - 4 C0359 <= -2.35
 R0177: C0176 - C0177 <= 2.59
 R0178: C0177 - C0178 - 4 C0400 <= -2.65
 R0179: C0178 - C0179 <= 1.92
 R0180: C0179 - C0180 - 4 C0399 <= -1.41
 R0181: C0180 - C0181 - 4 C0392 <= -1.68
 R0182: C0181 - C0182 - 4 C0375 <= -2.34
 R0183: C0182 - C0183 - 4 C0429 <= -1.48
 R0184: C0184 - C0185 - 4 C0430 <= -1.92
 R0185: C0185 - C0186 - 4 C0359 <= -1.89
 R0186: C0186 - C0187 <= 1.64
 R0187: C0187 - C0188 <= 2.69
 R0188: C0188 - C0189 - 4 C0381 <= -2.7
 R0189: C0189 - C0190 - 4 C0376 <= -1.34
 R0190: C0190 - C0191 - 4 C0386 <= -2.61
 R0191: C0191 - C0192 <= 1.45
 R0192: C0192 - C0193 - 4 C0395 <= -2.11
 R0193: C0193 - C0194 - 4 C0390 <= -2.28
 R0194: C0194 - C0195 - 4 C0410 <= -1.79
 R0195: C0195 - C0196 - 4 C0378 <= -1.47
 R0196: C0196 - C0197 - 4 C0419 <= -2.14
 R0197: C0197 - C0198 - 4 C0358 <= -2.85
 R0198: C0198 - C0199 - 4 C0389 <= -1.35
 R0199: C0199 - C0200 - 4 C0409 <= -2.86
 R0200: C0200 - C0201 <= 1.45
 R0201: C0202 - C0203 - 4 C0404 <= -1.49
 R0202: C0203 - C0204 - 4 C0410 <= -1.61
 R0203: C0204 - C0205 <= 1.24
 R0204: C0205 - C0206 - 4 C0430 <= -1.23
 R0205: C0206 - C0207 - 4 C0379 <= -1
 R0206: C0207 - C0208 <= 2.04
 R0207: C0208 - C0209 - 4 C0401 <= -1.44
 R0208: C0209 - C0210 - 4 C0357 <= -1.74
 R0209: C0210 - C0211 <= 2.52
 R0210: C0211 - C0212 - 4 C0372 <= -1.32
 R0211: C0212 - C0213 - 4 C0395 <= -2.31
 R0212: C0213 - C0214 - 4 C0414 <= -1.27
 R0213: C0214 - C0215 - 4 C0381 <= -2.79
 R0214: C0215 - C0216 - 4 C0366 <= -1.86
 R0215: C0216 - C0217 - 4 C0385 <= -1.78
 R0216: C0217 - C0218 <= 1.1
 R0217: C0218 - C0219 - 4 C0406 <= -2.75
 R0218: C0220 - C0221 <= 2.3
 R0219: C0221 - C0222 - 4 C0421 <= -2.92
 R0220: C0222 - C0223 - 4 C0378 <= -1.59
 R0221: C0223 - C0224 - 4 C0417 <= -1.43
 R0222: C0224 - C0225 - 4 C0412 <= -1.77
 R0223: C0225 - C0226 - 4 C0409 <= -1.78
 R0224: C0226 - C0227 <= 2.66
 R0225: C0227 - C0228 - 4 C0406 <= -1.5
 R0226: C0228 - C0229 - 4 C0349 <= -2.73
 R0227: C0229 - C0230 - 4 C0400 <= -2.42
 R0228: C0230 - C0231 - 4 C0367 <= -1.7
 R0229: C0231 - C0232 - 4 C0357 <= -2.85
 R0230: C0232 - C0233 - 4 C0411 <= -1.18
 R0231: C0233 - C0234 - 4 C0420 <= -2.01
 R0232: C0234 - C0235 - 4 C0410 <= -2.76
 R0233: C0235 - C0236 - 4 C0374 <= -1.3
 R0234: C0236 - C0237 <= 1.17
 R0235: C0237 - C0238 - 4 C0389 <= -2.86
 R0236: C0238 - C0239 - 4 C0396 <= -2.12
 R0237: C0239 - C0240 - 4 C0391 <= -2.14
 R0238: C0241 - C0242 <= 2.08
 R0239: C0242 - C0243 - 4 C0378 <= -2.52
 R0240: C0243 - C0244 - 4 C0354 <= -2.55
 R0241: C0244 - C0245 - 4 C0355 <= -1.17
 R0242: C0245 - C0246 - 4 C0392 <= -2.09
 R0243: C0246 - C0247 - 4 C0419 <= -2.22
 R0244: C0247 - C0248 - 4 C0398 <= -1.27
 R0245: C0248 - C0249 - 4 C0411 <= -2.37
 R0246: C0249 - C0250 - 4 C0346 <= -1.57
 R0247: C0250 - C0251 - 4 C0422 <= -2.47
 R0248: C0251 - C0252 - 4 C0374 <= -2.82
 R0249: C0252 - C0253 - 4 C0352 <= -1.43
 R0250: C0253 - C0254 - 4 C0380 <= -2.62
 R0251: C0254 - C0255 - 4 C0364 <= -2.53
 R0252: C0255 - C0256 - 4 C0388 <= -1.65
 R0253: C0256 - C0257 <= 2.11
 R0254: C0257 - C0258 <= 2.83
 R0255: C0259 - C0260 <= 1.55
 R0256: C0260 - C0261 - 4 C0419 <= -1.96
 R0257: C0261 - C0262 - 4 C0381 <= -1.74
 R0258: C0262 - C0263 - 4 C0394 <= -1.21
 R0259: C0263 - C0264 - 4 C0426 <= -2.78
 R0260: C0264 - C0265 - 4 C0392 <= -1.94
 R0261: C0265 - C0266 - 4 C0389 <= -2.94
 R0262: C0266 - C0267 - 4 C0422 <= -1.05
 R0263: C0267 - C0268 - 4 C0369 <= -1.47
 R0264: C0268 - C0269 - 4 C0382 <= -2.3
 R0265: C0269 - C0270 - 4 C0363 <= -1.65
 R0266: C0270 - C0271 - 4 C0354 <= -2.33
 R0267: C0271 - C0272 - 4 C0377 <= -1.48
 R0268: C0272 - C0273 - 4 C0405 <= -1.14
 R0269: C0274 - C0275 <= 1.33
 R0270: C0275 - C0276 - 4 C0359 <= -1.64
 R0271: C0276 - C0277 - 4 C0363 <= -2.4
 R0272: C0277 - C0278 - 4 C0416 <= -2.09
 R0273: C0278 - C0279 - 4 C0419 <= -2.36
 R0274: C0279 - C0280 - 4 C0347 <= -1.57
 R0275: C0280 - C0281 - 4 C0400 <= -1.58
 R0276: C0281 - C0282 - 4 C0390 <= -2.41
 R0277: C0282 - C0283 - 4 C0403 <= -1.16
 R0278: C0283 - C0284 - 4 C0406 <= -1.82
 R0279: C0284 - C0285 - 4 C0423 <= -2.44
 R0280: C0285 - C0286 - 4 C0399 <= -2.66
 R0281: C0286 - C0287 - 4 C0389 <= -1.4
 R0282: C0287 - C0288 - 4 C0418 <= -2.66
 R0283: C0288 - C0289 - 4 C0355 <= -2.82
 R0284: C0289 - C0290 - 4 C0351 <= -1.79
 R0285: C0290 - C0291 <= 2.03
 R0286: C0292 - C0293 <= 1.98
 R0287: C0293 - C0294 - 4 C0379 <= -2.13
 R0288: C0294 - C0295 <= 1.46
 R0289: C0295 - C0296 - 4 C0420 <= -2.74
 R0290: C0296 - C0297 - 4 C0375 <= -1.74
 R0291: C0297 - C0298 - 4 C0346 <= -1.64
 R0292: C0298 - C0299 <= 1.83
 R0293: C0299 - C0300 - 4 C0392 <= -1.06
 R0294: C0300 - C0301 - 4 C0394 <= -1.97
 R0295: C0301 - C0302 - 4 C0388 <= -1.44
 R0296: C0302 - C0303 - 4 C0348 <= -1.83
 R0297: C0303 - C0304 - 4 C0390 <= -2.19
 R0298: C0304 - C0305 - 4 C0425 <= -1.06
 R0299: C0305 - C0306 - 4 C0371 <= -1.96
 R0300: C0306 - C0307 - 4 C0409 <= -1.25
 R0301: C0308 - C0309 - 4 C0406 <= -2.14
 R0302: C0309 - C0310 - 4 C0359 <= -1.74
 R0303: C0310 - C0311 - 4 C0392 <= -2.82
 R0304: C0311 - C0312 - 4 C0425 <= -1.37
 R0305: C0312 - C0313 - 4 C0426 <= -2.67
 R0306: C0313 - C0314 - 4 C0379 <= -1.51
 R0307: C0314 - C0315 <= 1.87
 R0308: C0315 - C0316 <= 1.9
 R0309: C0316 - C0317 - 4 C0430 <= -1.25
 R0310: C0317 - C0318 - 4 C0364 <= -1.1
 R0311: C0318 - C0319 <= 1.2
 R0312: C0319 - C0320 - 4 C0381 <= -1.76
 R0313: C0320 - C0321 - 4 C0393 <= -2.48
 R0314: C0321 - C0322 - 4 C0404 <= -1.08
 R0315: C0323 - C0324 <= 2.18
 R0316: C0324 - C0325 - 4 C0358 <= -2.17
 R0317: C0325 - C0326 - 4 C0389 <= -1.35
 R0318: C0326 - C0327 - 4 C0374 <= -1.49
 R0319: C0327 - C0328 - 4 C0410 <= -1.3
 R0320: C0328 - C0329 - 4 C0382 <= -2.81
 R0321: C0329 - C0330 - 4 C0371 <= -2.19
 R0322: C0330 - C0331 <= 2.34
 R0323: C0331 - C0332 - 4 C0365 <= -2.55
 R0324: C0332 - C0333 <= 2.06
 R0325: C0333 - C0334 - 4 C0407 <= -1.02
 R0326: C0334 - C0335 - 4 C0385 <= -1.66
 R0327: C0335 - C0336 - 4 C0418 <= -2.62
 R0328: C0336 - C0337 - 4 C0403 <= -2.64
 R0329: C0337 - C0338 - 4 C0347 <= -1.09
 R0330: C0338 - C0339 - 4 C0352 <= -1.33
 R0331: C0339 - C0340 - 4 C0356 <= -1.12
 R0332: C0340 - C0341 - 4 C0350 <= -2.82
 R0333: C0341 - C0342 - 4 C0368 <= -1.62
 R0334: C0342 - C0343 - 4 C0375 <= -2.06
 R0335: C0343 - C0344 - 4 C0372 <= -1.73
Bounds
 0 <= C0001 <= 1.98
 0 <= C0002 <= 18.32
 0 <= C0003 <= 18.86
 0 <= C0004 <= 17.2
 0 <= C0005 <= 17.53
 0 <= C0006 <= 17.29
 0 <= C0007 <= 17.54
 0 <= C0008 <= 17.65
 0 <= C0009 <= 18.59
 0 <= C0010 <= 17.35
 0 <= C0011 <= 17.92
 0 <= C0012 <= 18.59
 0 <= C0013 <= 18.32
 0 <= C0014 <= 17.66
 0 <= C0015 <= 18.52
 0 <= C0016 <= 2.08
 0 <= C0017 <= 18.11
 0 <= C0018 <= 17.64
 0 <= C0019 <= 18.69
 0 <= C0020 <= 17.3
 0 <= C0021 <= 18.66
 0 <= C0022 <= 17.39
 0 <= C0023 <= 17.45
 0 <= C0024 <= 17.89
 0 <= C0025 <= 17.72
 0 <= C0026 <= 18.21
 0 <= C0027 <= 18.53
 0 <= C0028 <= 17.86
 0 <= C0029 <= 17.15
 0 <= C0030 <= 18.65
 0 <= C0031 <= 17.14
 0 <= C0032 <= 17.45
 0 <= C0033 <= 2.51
 0 <= C0034 <= 18.39
 0 <= C0035 <= 17.24
 0 <= C0036 <= 18.77
 0 <= C0037 <= 19
 0 <= C0038 <= 18.04
 0 <= C0039 <= 18.56
 0 <= C0040 <= 18.26
 0 <= C0041 <= 18.52
 0 <= C0042 <= 18.68
 0 <= C0043 <= 17.69
 0 <= C0044 <= 18.73
 0 <= C0045 <= 17.21
 0 <= C0046 <= 18.14
 0 <= C0047 <= 18.22
 0 <= C0048 <= 17.1
 0 <= C0049 <= 17.25
 0 <= C0050 <= 2.3
 0 <= C0051 <= 17.08
 0 <= C0052 <= 18.41
 0 <= C0053 <= 18.57
 0 <= C0054 <= 18.23
 0 <= C0055 <= 18.22
 0 <= C0056 <= 18.66
 0 <= C0057 <= 18.5
 0 <= C0058 <= 17.27
 0 <= C0059 <= 17.58
 0 <= C0060 <= 18.3
 0 <= C0061 <= 17.15
 0 <= C0062 <= 18.82
 0 <= C0063 <= 17.99
 0 <= C0064 <= 17.24
 0 <= C0065 <= 18.7
 0 <= C0066 <= 17.17
 0 <= C0067 <= 17.14
 0 <= C0068 <= 17.88
 0 <= C0069 <= 17.86
 0 <= C0070 <= 2.08
 0 <= C0071 <= 17.48
 0 <= C0072 <= 17.45
 0 <= C0073 <= 18.83
 0 <= C0074 <= 17.91
 0 <= C0075 <= 17.78
 0 <= C0076 <= 18.73
 0 <= C0077 <= 17.63
 0 <= C0078 <= 18.43
 0 <= C0079 <= 17.53
 0 <= C0080 <= 17.18
 0 <= C0081 <= 18.57
 0 <= C0082 <= 17.38
 0 <= C0083 <= 17.47
 0 <= C0084 <= 18.35
 0 <= C0085 <= 18.11
 0 <= C0086 <= 18.83
 0 <= C0087 <= 1.55
 0 <= C0088 <= 18.04
 0 <= C0089 <= 18.26
 0 <= C0090 <= 18.79
 0 <= C0091 <= 17.22
 0 <= C0092 <= 18.06
 0 <= C0093 <= 17.06
 0 <= C0094 <= 18.95
 0 <= C0095 <= 18.53
 0 <= C0096 <= 17.7
 0 <= C0097 <= 18.35
 0 <= C0098 <= 17.67
 0 <= C0099 <= 18.52
 0 <= C0100 <= 18.86
 0 <= C0101 <= 1.33
 0 <= C0102 <= 18.36
 0 <= C0103 <= 17.6
 0 <= C0104 <= 17.91
 0 <= C0105 <= 17.64
 0 <= C0106 <= 18.43
 0 <= C0107 <= 18.42
 0 <= C0108 <= 17.59
 0 <= C0109 <= 18.84
 0 <= C0110 <= 18.18
 0 <= C0111 <= 17.56
 0 <= C0112 <= 17.34
 0 <= C0113 <= 18.6
 0 <= C0114 <= 17.34
 0 <= C0115 <= 17.18
 0 <= C0116 <= 18.21
 0 <= C0117 <= 18.03
 0 <= C0118 <= 1.98
 0 <= C0119 <= 17.87
 0 <= C0120 <= 17.46
 0 <= C0121 <= 17.26
 0 <= C0122 <= 18.26
 0 <= C0123 <= 18.36
 0 <= C0124 <= 17.83
 0 <= C0125 <= 18.94
 0 <= C0126 <= 18.03
 0 <= C0127 <= 18.56
 0 <= C0128 <= 18.17
 0 <= C0129 <= 17.81
 0 <= C0130 <= 18.94
 0 <= C0131 <= 18.04
 0 <= C0132 <= 18.75
 0 <= C0133 <= 1.86
 0 <= C0134 <= 18.26
 0 <= C0135 <= 17.18
 0 <= C0136 <= 18.63
 0 <= C0137 <= 17.33
 0 <= C0138 <= 18.49
 0 <= C0139 <= 17.87
 0 <= C0140 <= 17.9
 0 <= C0141 <= 18.75
 0 <= C0142 <= 18.9
 0 <= C0143 <= 17.2
 0 <= C0144 <= 18.24
 0 <= C0145 <= 17.52
 0 <= C0146 <= 18.92
 0 <= C0147 <= 2.18
 0 <= C0148 <= 17.83
 0 <= C0149 <= 18.65
 0 <= C0150 <= 18.51
 0 <= C0151 <= 18.7
 0 <= C0152 <= 17.19
 0 <= C0153 <= 17.81
 0 <= C0154 <= 18.34
 0 <= C0155 <= 17.45
 0 <= C0156 <= 18.06
 0 <= C0157 <= 18.98
 0 <= C0158 <= 18.34
 0 <= C0159 <= 17.38
 0 <= C0160 <= 17.36
 0 <= C0161 <= 18.91
 0 <= C0162 <= 18.67
 0 <= C0163 <= 18.88
 0 <= C0164 <= 17.18
 0 <= C0165 <= 18.38
 0 <= C0166 <= 17.94
 0 <= C0167 <= 18.27
 0 <= C0168 <= 17.98
 0 <= C0169 <= 18.32
 0 <= C0170 <= 18.86
 0 <= C0171 <= 17.2
 0 <= C0172 <= 17.53
 0 <= C0173 <= 17.29
 0 <= C0174 <= 17.54
 0 <= C0175 <= 17.65
 0 <= C0176 <= 18.59
 0 <= C0177 <= 17.35
 0 <= C0178 <= 17.92
 0 <= C0179 <= 18.59
 0 <= C0180 <= 18.32
 0 <= C0181 <= 17.66
 0 <= C0182 <= 18.52
 0 <= C0183 <= 20
 0 <= C0184 <= 18.08
 0 <= C0185 <= 18.11
 0 <= C0186 <= 17.64
 0 <= C0187 <= 18.69
 0 <= C0188 <= 17.3
 0 <= C0189 <= 18.66
 0 <= C0190 <= 17.39
 0 <= C0191 <= 17.45
 0 <= C0192 <= 17.89
 0 <= C0193 <= 17.72
 0 <= C0194 <= 18.21
 0 <= C0195 <= 18.53
 0 <= C0196 <= 17.86
 0 <= C0197 <= 17.15
 0 <= C0198 <= 18.65
 0 <= C0199 <= 17.14
 0 <= C0200 <= 17.45
 0 <= C0201 <= 20
 0 <= C0202 <= 18.51
 0 <= C0203 <= 18.39
 0 <= C0204 <= 17.24
 0 <= C0205 <= 18.77
 0 <= C0206 <= 19
 0 <= C0207 <= 18.04
 0 <= C0208 <= 18.56
 0 <= C0209 <= 18.26
 0 <= C0210 <= 18.52
 0 <= C0211 <= 18.68
 0 <= C0212 <= 17.69
 0 <= C0213 <= 18.73
 0 <= C0214 <= 17.21
 0 <= C0215 <= 18.14
 0 <= C0216 <= 18.22
 0 <= C0217 <= 17.1
 0 <= C0218 <= 17.25
 0 <= C0219 <= 20
 0 <= C0220 <= 18.3
 0 <= C0221 <= 17.08
 0 <= C0222 <= 18.41
 0 <= C0223 <= 18.57
 0 <= C0224 <= 18.23
 0 <= C0225 <= 18.22
 0 <= C0226 <= 18.66
 0 <= C0227 <= 18.5
 0 <= C0228 <= 17.27
 0 <= C0229 <= 17.58
 0 <= C0230 <= 18.3
 0 <= C0231 <= 17.15
 0 <= C0232 <= 18.82
 0 <= C0233 <= 17.99
 0 <= C0234 <= 17.24
 0 <= C0235 <= 18.7
 0 <= C0236 <= 17.17
 0 <= C0237 <= 17.14
 0 <= C0238 <= 17.88
 0 <= C0239 <= 17.86
 0 <= C0240 <= 20
 0 <= C0241 <= 18.08
 0 <= C0242 <= 17.48
 0 <= C0243 <= 17.45
 0 <= C0244 <= 18.83
 0 <= C0245 <= 17.91
 0 <= C0246 <= 17.78
 0 <= C0247 <= 18.73
 0 <= C0248 <= 17.63
 0 <= C0249 <= 18.43
 0 <= C0250 <= 17.53
 0 <= C0251 <= 17.18
 0 <= C0252 <= 18.57
 0 <= C0253 <= 17.38
 0 <= C0254 <= 17.47
 0 <= C0255 <= 18.35
 0 <= C0256 <= 18.11
 0 <= C0257 <= 18.83
 0 <= C0258 <= 20
 0 <= C0259 <= 17.55
 0 <= C0260 <= 18.04
 0 <= C0261 <= 18.26
 0 <= C0262 <= 18.79
 0 <= C0263 <= 17.22
 0 <= C0264 <= 18.06
 0 <= C0265 <= 17.06
 0 <= C0266 <= 18.95
 0 <= C0267 <= 18.53
 0 <= C0268 <= 17.7
 0 <= C0269 <= 18.35
 0 <= C0270 <= 17.67
 0 <= C0271 <= 18.52
 0 <= C0272 <= 18.86
 0 <= C0273 <= 20
 0 <= C0274 <= 17.33
 0 <= C0275 <= 18.36
 0 <= C0276 <= 17.6
 0 <= C0277 <= 17.91
 0 <= C0278 <= 17.64
 0 <= C0279 <= 18.43
 0 <= C0280 <= 18.42
 0 <= C0281 <= 17.59
 0 <= C0282 <= 18.84
 0 <= C0283 <= 18.18
 0 <= C0284 <= 17.56
 0 <= C0285 <= 17.34
 0 <= C0286 <= 18.6
 0 <= C0287 <= 17.34
 0 <= C0288 <= 17.18
 0 <= C0289 <= 18.21
 0 <= C0290 <= 18.03
 0 <= C0291 <= 20
 0 <= C0292 <= 17.98
 0 <= C0293 <= 17.87
 0 <= C0294 <= 17.46
 0 <= C0295 <= 17.26
 0 <= C0296 <= 18.26
 0 <= C0297 <= 18.36
 0 <= C0298 <= 17.83
 0 <= C0299 <= 18.94
 0 <= C0300 <= 18.03
 0 <= C0301 <= 18.56
 0 <= C0302 <= 18.17
 0 <= C0303 <= 17.81
 0 <= C0304 <= 18.94
 0 <= C0305 <= 18.04
 0 <= C0306 <= 18.75
 0 <= C0307 <= 20
 0 <= C0308 <= 17.86
 0 <= C0309 <= 18.26
 0 <= C0310 <= 17.18
 0 <= C0311 <= 18.63
 0 <= C0312 <= 17.33
 0 <= C0313 <= 18.49
 0 <= C0314 <= 17.87
 0 <= C0315 <= 17.9
 0 <= C0316 <= 18.75
 0 <= C0317 <= 18.9
 0 <= C0318 <= 17.2
 0 <= C0319 <= 18.24
 0 <= C0320 <= 17.52
 0 <= C0321 <= 18.92
 0 <= C0322 <= 20
 0 <= C0323 <= 18.18
 0 <= C0324 <= 17.83
 0 <= C0325 <= 18.65
 0 <= C0326 <= 18.51
 0 <= C0327 <= 18.7
 0 <= C0328 <= 17.19
 0 <= C0329 <= 17.81
 0 <= C0330 <= 18.34
 0 <= C0331 <= 17.45
 0 <= C0332 <= 18.06
 0 <= C0333 <= 18.98
 0 <= C0334 <= 18.34
 0 <= C0335 <= 17.38
 0 <= C0336 <= 17.36
 0 <= C0337 <= 18.91
 0 <= C0338 <= 18.67
 0 <= C0339 <= 18.88
 0 <= C0340 <= 17.18
 0 <= C0341 <= 18.38
 0 <= C0342 <= 17.94
 0 <= C0343 <= 18.27
 0 <= C0344 <= 20
      C0345 Free
 0 <= C0346 <= 1
 0 <= C0347 <= 1
 0 <= C0348 <= 1
 0 <= C0349 <= 1
 0 <= C0350 <= 1
 0 <= C0351 <= 1
 0 <= C0352 <= 1
 0 <= C0353 <= 1
 0 <= C0354 <= 1
 0 <= C0355 <= 1
 0 <= C0356 <= 1
 0 <= C0357 <= 1
 0 <= C0358 <= 1
 0 <= C0359 <= 1
 0 <= C0360 <= 1
 0 <= C0361 <= 1
 0 <= C0362 <= 1
 0 <= C0363 <= 1
 0 <= C0364 <= 1
 0 <= C0365 <= 1
 0 <= C0366 <= 1
 0 <= C0367 <= 1
 0 <= C0368 <= 1
 0 <= C0369 <= 1
 0 <= C0370 <= 1
 0 <= C0371 <= 1
 0 <= C0372 <= 1
 0 <= C0373 <= 1
 0 <= C0374 <= 1
 0 <= C0375 <= 1
 0 <= C0376 <= 1
 0 <= C0377 <= 1
 0 <= C0378 <= 1
 0 <= C0379 <= 1
 0 <= C0380 <= 1
 0 <= C0381 <= 1
 0 <= C0382 <= 1
 0 <= C0383 <= 1
 0 <= C0384 <= 1
 0 <= C0385 <= 1
 0 <= C0386 <= 1
 0 <= C0387 <= 1
 0 <= C0388 <= 1
 0 <= C0389 <= 1
 0 <= C0390 <= 1
 0 <= C0391 <= 1
 0 <= C0392 <= 1
 0 <= C0393 <= 1
 0 <= C0394 <= 1
 0 <= C0395 <= 1
 0 <= C0396 <= 1
 0 <= C0397 <= 1
 0 <= C0398 <= 1
 0 <= C0399 <= 1
 0 <= C0400 <= 1
 0 <= C0401 <= 1
 0 <= C0402 <= 1
 0 <= C0403 <= 1
 0 <= C0404 <= 1
 0 <= C0405 <= 1
 0 <= C0406 <= 1
 0 <= C0407 <= 1
 0 <= C0408 <= 1
 0 <= C0409 <= 1
 0 <= C0410 <= 1
 0 <= C0411 <= 1
 0 <= C0412 <= 1
 0 <= C0413 <= 1
 0 <= C0414 <= 1
 0 <= C0415 <= 1
 0 <= C0416 <= 1
 0 <= C0417 <= 1
 0 <= C0418 <= 1
 0 <= C0419 <= 1
 0 <= C0420 <= 1
 0 <= C0421 <= 1
 0 <= C0422 <= 1
 0 <= C0423 <= 1
 0 <= C0424 <= 1
 0 <= C0425 <= 1
 0 <= C0426 <= 1
 0 <= C0427 <= 1
 0 <= C0428 <= 1
 0 <= C0429 <= 1
 0 <= C0430 <= 1
Binaries
 C0346  C0347  C0348  C0349  C0350  C0351  C0352  C0353  C0354  C0355  C0356 
 C0357  C0358  C0359  C0360  C0361  C0362  C0363  C0364  C0365  C0366  C0367 
 C0368  C0369  C0370  C0371  C0372  C0373  C0374  C0375  C0376  C0377  C0378 
 C0379  C0380  C0381  C0382  C0383  C0384  C0385  C0386  C0387  C0388  C0389 
 C0390  C0391  C0392  C0393  C0394  C0395  C0396  C0397  C0398  C0399  C0400 
 C0401  C0402  C0403  C0404  C0405  C0406  C0407  C0408  C0409  C0410  C0411 
 C0412  C0413  C0414  C0415  C0416  C0417  C0418  C0419  C0420  C0421  C0422 
 C0423  C0424  C0425  C0426  C0427  C0428  C0429  C0430 
End
